SCIP version 8.0.0 [precision: 8 byte] [memory: block] [mode: optimized] [LP solver: SoPlex 6.0.0] [GitHash: a740f0891e]
Copyright (C) 2002-2021 Konrad-Zuse-Zentrum fuer Informationstechnik Berlin (ZIB)

External libraries: 
  SoPlex 6.0.0         Linear Programming Solver developed at Zuse Institute Berlin (soplex.zib.de) [GitHash: 71a5873d]
  CppAD 20180000.0     Algorithmic Differentiation of C++ algorithms developed by B. Bell (github.com/coin-or/CppAD)
  ZLIB 1.2.11          General purpose compression library by J. Gailly and M. Adler (zlib.net)
  GMP 6.2.1            GNU Multiple Precision Arithmetic Library developed by T. Granlund (gmplib.org)
  ZIMPL 3.5.1          Zuse Institute Mathematical Programming Language developed by T. Koch (zimpl.zib.de)
  AMPL/MP 4e2d45c4     AMPL .nl file reader library (github.com/ampl/mp)
  PaPILO 2.0.0         parallel presolve for integer and linear optimization (github.com/scipopt/papilo) [GitHash: 76cafc1]
  bliss 0.73p          Computing Graph Automorphism Groups by T. Junttila and P. Kaski (www.tcs.hut.fi/Software/bliss/)
  Ipopt 3.13.2         Interior Point Optimizer developed by A. Waechter et.al. (github.com/coin-or/Ipopt)

user parameter file <scip.set> not found - using default parameters

read problem <../modeles/5_104.lp>
============

original problem has 1050 variables (520 bin, 0 int, 0 impl, 530 cont) and 541 constraints

solve problem
=============

presolving:
(round 1, fast)       5 del vars, 0 del conss, 0 add conss, 1120 chg bounds, 0 chg sides, 0 chg coeffs, 0 upgd conss, 0 impls, 5 clqs
(round 2, fast)       5 del vars, 0 del conss, 0 add conss, 1120 chg bounds, 0 chg sides, 510 chg coeffs, 0 upgd conss, 0 impls, 5 clqs
   (0.0s) running MILP presolver
   (0.0s) MILP presolver (22 rounds): 0 aggregations, 310 fixings, 0 bound changes
(round 3, medium)     315 del vars, 541 del conss, 396 add conss, 1120 chg bounds, 0 chg sides, 510 chg coeffs, 0 upgd conss, 0 impls, 5 clqs
(round 4, exhaustive) 315 del vars, 541 del conss, 396 add conss, 1120 chg bounds, 0 chg sides, 510 chg coeffs, 55 upgd conss, 0 impls, 5 clqs
(round 5, exhaustive) 340 del vars, 541 del conss, 396 add conss, 1120 chg bounds, 0 chg sides, 510 chg coeffs, 55 upgd conss, 2937 impls, 13 clqs
(round 6, fast)       341 del vars, 551 del conss, 396 add conss, 1121 chg bounds, 0 chg sides, 510 chg coeffs, 55 upgd conss, 2937 impls, 13 clqs
(round 7, exhaustive) 341 del vars, 551 del conss, 396 add conss, 1121 chg bounds, 0 chg sides, 510 chg coeffs, 76 upgd conss, 2937 impls, 13 clqs
(round 8, exhaustive) 366 del vars, 551 del conss, 396 add conss, 1122 chg bounds, 0 chg sides, 510 chg coeffs, 76 upgd conss, 5761 impls, 32 clqs
(round 9, fast)       366 del vars, 562 del conss, 396 add conss, 1122 chg bounds, 0 chg sides, 511 chg coeffs, 76 upgd conss, 5761 impls, 32 clqs
(round 10, exhaustive) 366 del vars, 562 del conss, 396 add conss, 1122 chg bounds, 0 chg sides, 511 chg coeffs, 93 upgd conss, 5761 impls, 32 clqs
(round 11, exhaustive) 391 del vars, 562 del conss, 396 add conss, 1122 chg bounds, 0 chg sides, 511 chg coeffs, 93 upgd conss, 8044 impls, 41 clqs
(round 12, fast)       393 del vars, 577 del conss, 396 add conss, 1124 chg bounds, 0 chg sides, 511 chg coeffs, 93 upgd conss, 8044 impls, 41 clqs
(round 13, exhaustive) 393 del vars, 577 del conss, 396 add conss, 1124 chg bounds, 0 chg sides, 511 chg coeffs, 98 upgd conss, 8044 impls, 41 clqs
(round 14, exhaustive) 418 del vars, 577 del conss, 396 add conss, 1125 chg bounds, 0 chg sides, 511 chg coeffs, 98 upgd conss, 10177 impls, 85 clqs
(round 15, fast)       418 del vars, 591 del conss, 396 add conss, 1125 chg bounds, 0 chg sides, 512 chg coeffs, 98 upgd conss, 10177 impls, 85 clqs
(round 16, exhaustive) 418 del vars, 591 del conss, 396 add conss, 1125 chg bounds, 0 chg sides, 512 chg coeffs, 105 upgd conss, 10177 impls, 85 clqs
(round 17, exhaustive) 443 del vars, 591 del conss, 396 add conss, 1128 chg bounds, 0 chg sides, 512 chg coeffs, 105 upgd conss, 15093 impls, 253 clqs
(round 18, fast)       445 del vars, 607 del conss, 396 add conss, 1130 chg bounds, 0 chg sides, 515 chg coeffs, 105 upgd conss, 15093 impls, 253 clqs
   (0.2s) running MILP presolver
   (0.2s) MILP presolver (8 rounds): 0 aggregations, 40 fixings, 0 bound changes
(round 19, medium)     485 del vars, 628 del conss, 396 add conss, 1130 chg bounds, 0 chg sides, 515 chg coeffs, 105 upgd conss, 15093 impls, 253 clqs
(round 20, fast)       485 del vars, 633 del conss, 396 add conss, 1130 chg bounds, 0 chg sides, 515 chg coeffs, 105 upgd conss, 15093 impls, 253 clqs
(round 21, exhaustive) 485 del vars, 633 del conss, 396 add conss, 1130 chg bounds, 0 chg sides, 515 chg coeffs, 107 upgd conss, 15093 impls, 253 clqs
   (0.3s) probing cycle finished: starting next cycle
   (0.3s) probing: 59/270 (21.9%) - 145 fixings, 0 aggregations, 19617 implications, 8 bound changes
   (0.3s) probing aborted: 50/50 successive totally useless probings
(round 22, exhaustive) 505 del vars, 633 del conss, 396 add conss, 1133 chg bounds, 0 chg sides, 515 chg coeffs, 107 upgd conss, 19704 impls, 560 clqs
(round 23, fast)       505 del vars, 644 del conss, 396 add conss, 1133 chg bounds, 0 chg sides, 518 chg coeffs, 107 upgd conss, 19704 impls, 560 clqs
(round 24, exhaustive) 505 del vars, 644 del conss, 396 add conss, 1133 chg bounds, 0 chg sides, 518 chg coeffs, 110 upgd conss, 19704 impls, 560 clqs
   (0.3s) probing: 64/270 (23.7%) - 145 fixings, 0 aggregations, 19617 implications, 8 bound changes
   (0.3s) probing aborted: 50/50 successive totally useless probings
   (0.3s) symmetry computation started: requiring (bin +, int -, cont +), (fixed: bin -, int +, cont -)
   (0.3s) symmetry computation finished: 2 generators found (max: 1500, log10 of symmetry group size: 0.8)
(round 25, exhaustive) 505 del vars, 644 del conss, 397 add conss, 1135 chg bounds, 0 chg sides, 518 chg coeffs, 110 upgd conss, 19706 impls, 560 clqs
(round 26, fast)       505 del vars, 644 del conss, 397 add conss, 1135 chg bounds, 0 chg sides, 520 chg coeffs, 110 upgd conss, 19706 impls, 560 clqs
presolving (27 rounds: 27 fast, 17 medium, 15 exhaustive):
 505 deleted vars, 644 deleted constraints, 397 added constraints, 1135 tightened bounds, 0 added holes, 0 changed sides, 520 changed coefficients
 19706 implications, 560 cliques
presolved problem has 545 variables (270 bin, 0 int, 0 impl, 275 cont) and 292 constraints
     10 constraints of type <varbound>
      5 constraints of type <setppc>
    276 constraints of type <linear>
      1 constraints of type <orbitope>
Presolving Time: 0.29

 time | node  | left  |LP iter|LP it/n|mem/heur|mdpt |vars |cons |rows |cuts |sepa|confs|strbr|  dualbound   | primalbound  |  gap   | compl. 
p 0.3s|     1 |     0 |     7 |     - |   locks|   0 | 545 | 292 | 291 |   0 |  0 |   0 |   0 |-6.750343e+01 |-1.000000e+00 |6650.34%| unknown
  0.3s|     1 |     0 |   192 |     - |    31M |   0 | 545 | 292 | 291 |   0 |  0 |   0 |   0 |-2.234114e+00 |-1.000000e+00 | 123.41%| unknown
  0.3s|     1 |     0 |   192 |     - |    31M |   0 | 545 | 292 | 291 |   0 |  0 |   0 |   0 |-2.234114e+00 |-1.000000e+00 | 123.41%| unknown
  0.3s|     1 |     0 |   194 |     - |    31M |   0 | 545 | 292 | 288 |   2 |  1 |   0 |   0 |-2.234114e+00 |-1.000000e+00 | 123.41%| unknown
  0.3s|     1 |     0 |   195 |     - |    31M |   0 | 545 | 292 | 293 |   7 |  2 |   0 |   0 |-2.234114e+00 |-1.000000e+00 | 123.41%| unknown
  0.3s|     1 |     0 |   196 |     - |    31M |   0 | 545 | 292 | 294 |   8 |  3 |   0 |   0 |-2.234114e+00 |-1.000000e+00 | 123.41%| unknown
  0.3s|     1 |     0 |   198 |     - |    31M |   0 | 545 | 292 | 298 |  12 |  5 |   0 |   0 |-2.234114e+00 |-1.000000e+00 | 123.41%| unknown
r 0.3s|     1 |     0 |   221 |     - |intshift|   0 | 545 | 287 | 298 |  12 |  7 |   0 |   0 |-2.234114e+00 |-2.234114e+00 |   0.00%| unknown
  0.3s|     1 |     0 |   221 |     - |    31M |   0 | 545 | 287 | 298 |  12 |  7 |   0 |   0 |-2.234114e+00 |-2.234114e+00 |   0.00%| unknown

SCIP Status        : problem is solved [optimal solution found]
Solving Time (sec) : 0.32
Solving Nodes      : 1
Primal Bound       : -2.23411371237458e+00 (2 solutions)
Dual Bound         : -2.23411371237458e+00
Gap                : 0.00 %

primal solution (original space):
=================================

objective value:                    -2.23411371237458
y_1,40_                                             1 	(obj:0)
y_3,40_                                             1 	(obj:0)
y_5,40_                                             1 	(obj:0)
y_2,41_                                             1 	(obj:0)
y_4,42_                                             1 	(obj:0)
t_2,42_                             0.913043478260877 	(obj:0)
x_1_                               -0.461538461538462 	(obj:1)
t_2,41_                             0.086956521739123 	(obj:0)
t_1,41_                                             1 	(obj:0)
x_3_                               -0.461538461538462 	(obj:1)
t_4,42_                                             1 	(obj:0)
x_4_                               -0.423076923076923 	(obj:1)
x_5_                               -0.461538461538462 	(obj:1)
x_2_                               -0.426421404682274 	(obj:1)
t_5,41_                                             1 	(obj:0)
t_3,41_                                             1 	(obj:0)

Statistics
==========

SCIP Status        : problem is solved [optimal solution found]
Total Time         :       0.33
  solving          :       0.32
  presolving       :       0.29 (included in solving)
  reading          :       0.00
  copying          :       0.00 (0 times copied the problem)
Original Problem   :
  Problem name     : ../modeles/5_104.lp
  Variables        : 1050 (520 binary, 0 integer, 0 implicit integer, 530 continuous)
  Constraints      : 541 initial, 541 maximal
  Objective        : minimize, 5 non-zeros (abs.min = 1, abs.max = 1)
Presolved Problem  :
  Problem name     : t_../modeles/5_104.lp
  Variables        : 545 (270 binary, 0 integer, 0 implicit integer, 275 continuous)
  Constraints      : 292 initial, 292 maximal
  Objective        : minimize, 270 non-zeros (abs.min = 0.0384615, abs.max = 1.03846)
  Nonzeros         : 2062 constraint, 795 clique table
Presolvers         :   ExecTime  SetupTime  Calls  FixedVars   AggrVars   ChgTypes  ChgBounds   AddHoles    DelCons    AddCons   ChgSides   ChgCoefs
  boundshift       :       0.00       0.00      0          0          0          0          0          0          0          0          0          0
  convertinttobin  :       0.00       0.00      0          0          0          0          0          0          0          0          0          0
  domcol           :       0.00       0.00      8          0          0          0          0          0          0          0          0          0
  dualagg          :       0.00       0.00      0          0          0          0          0          0          0          0          0          0
  dualcomp         :       0.00       0.00      8          0          0          0          0          0          0          0          0          0
  dualinfer        :       0.00       0.00      0          0          0          0          0          0          0          0          0          0
  dualsparsify     :       0.00       0.00      1          0          0          0          0          0          0          0          0          0
  gateextraction   :       0.00       0.00      0          0          0          0          0          0          0          0          0          0
  implics          :       0.00       0.00     17          0          0          0          2          0          0          0          0          0
  inttobinary      :       0.00       0.00      0          0          0          0          0          0          0          0          0          0
  milp             :       0.05       0.00      2        350          0          0          0          0        541        396          0          0
  qpkktref         :       0.00       0.00      0          0          0          0          0          0          0          0          0          0
  redvub           :       0.00       0.00      0          0          0          0          0          0          0          0          0          0
  sparsify         :       0.01       0.00      2          0          0          0          0          0          0          0          0          0
  stuffing         :       0.00       0.00      0          0          0          0          0          0          0          0          0          0
  trivial          :       0.00       0.00     27          0          0          0          0          0          0          0          0          0
  tworowbnd        :       0.00       0.00      0          0          0          0          0          0          0          0          0          0
  dualfix          :       0.00       0.00     27          0          0          0          0          0          0          0          0          0
  genvbounds       :       0.00       0.00      0          0          0          0          0          0          0          0          0          0
  probing          :       0.21       0.00      7        145          0          0          8          0          0          0          0          0
  pseudoobj        :       0.00       0.00      0          0          0          0          0          0          0          0          0          0
  symmetry         :       0.00       0.00      1          0          0          0          0          0          0          1          0          0
  vbounds          :       0.00       0.00      7          0          0          0          0          0          0          0          0          0
  varbound         :       0.00       0.00     38          0          0          0          3          0         95          0          0          8
  setppc           :       0.00       0.00     52          0          0          0          0          0          0          0          0          0
  linear           :       0.01       0.00     42          5          5          0       1122          0          8          0          0        512
  orbitope         :       0.00       0.00      1          0          0          0          0          0          0          0          0          0
  benders          :       0.00       0.00      0          0          0          0          0          0          0          0          0          0
  components       :       0.00       0.00      1          0          0          0          0          0          0          0          0          0
  root node        :          -          -      -          5          -          -         10          -          -          -          -          -
Constraints        :     Number  MaxNumber  #Separate #Propagate    #EnfoLP    #EnfoRelax  #EnfoPS    #Check   #ResProp    Cutoffs    DomReds       Cuts    Applied      Conss   Children
  benderslp        :          0          0          0          0          0          0          0         17          0          0          0          0          0          0          0
  integral         :          0          0          0          0          0          0          0         17          0          0          0          0          0          0          0
  varbound         :         10         10          5       2646          0          0          0         11          0          0          5          0          0          0          0
  setppc           :          5          5          5       2652          0          0          0         11          0          0          0          0          0          0          0
  linear           :        276        276          5       2654          0          0          0          3          0        192          0          0          0          0          0
  orbitope         :          1          1          0        382          0          0          0          2          0          0          0          0          0          0          0
  benders          :          0          0          0          0          0          0          0          3          0          0          0          0          0          0          0
  countsols        :          0          0          0          0          0          0          0          3          0          0          0          0          0          0          0
  components       :          0          0          0          0          0          0          0          0          0          0          0          0          0          0          0
Constraint Timings :  TotalTime  SetupTime   Separate  Propagate     EnfoLP     EnfoPS     EnfoRelax   Check    ResProp    SB-Prop
  benderslp        :       0.00       0.00       0.00       0.00       0.00       0.00       0.00       0.00       0.00       0.00
  integral         :       0.00       0.00       0.00       0.00       0.00       0.00       0.00       0.00       0.00       0.00
  varbound         :       0.01       0.00       0.00       0.01       0.00       0.00       0.00       0.00       0.00       0.00
  setppc           :       0.00       0.00       0.00       0.00       0.00       0.00       0.00       0.00       0.00       0.00
  linear           :       0.11       0.00       0.00       0.11       0.00       0.00       0.00       0.00       0.00       0.00
  orbitope         :       0.00       0.00       0.00       0.00       0.00       0.00       0.00       0.00       0.00       0.00
  benders          :       0.00       0.00       0.00       0.00       0.00       0.00       0.00       0.00       0.00       0.00
  countsols        :       0.00       0.00       0.00       0.00       0.00       0.00       0.00       0.00       0.00       0.00
  components       :       0.00       0.00       0.00       0.00       0.00       0.00       0.00       0.00       0.00       0.00
Propagators        : #Propagate   #ResProp    Cutoffs    DomReds
  dualfix          :          3          0          0          0
  genvbounds       :          0          0          0          0
  nlobbt           :          0          0          0          0
  obbt             :          0          0          0          0
  probing          :          0          0          0          0
  pseudoobj        :         11          0          0          0
  redcost          :          7          0          0          5
  rootredcost      :          0          0          0          0
  symmetry         :          0          0          0          0
  vbounds          :        263          0          0          0
Propagator Timings :  TotalTime  SetupTime   Presolve  Propagate    ResProp    SB-Prop
  dualfix          :       0.00       0.00       0.00       0.00       0.00       0.00
  genvbounds       :       0.00       0.00       0.00       0.00       0.00       0.00
  nlobbt           :       0.00       0.00       0.00       0.00       0.00       0.00
  obbt             :       0.00       0.00       0.00       0.00       0.00       0.00
  probing          :       0.21       0.00       0.21       0.00       0.00       0.00
  pseudoobj        :       0.00       0.00       0.00       0.00       0.00       0.00
  redcost          :       0.00       0.00       0.00       0.00       0.00       0.00
  rootredcost      :       0.00       0.00       0.00       0.00       0.00       0.00
  symmetry         :       0.00       0.00       0.00       0.00       0.00       0.00
  vbounds          :       0.00       0.00       0.00       0.00       0.00       0.00
Orbital fixing     :
  vars fixed to 0  :          0
  vars fixed to 1  :          0
Conflict Analysis  :       Time      Calls    Success    DomReds  Conflicts   Literals    Reconvs ReconvLits   Dualrays   Nonzeros   LP Iters   (pool size: [--,--])
  propagation      :       0.00          0          0          -          0        0.0          0        0.0          -          -          -
  infeasible LP    :       0.00          0          0          -          0        0.0          0        0.0          0        0.0          0
  bound exceed. LP :       0.00          0          0          -          0        0.0          0        0.0          0        0.0          0
  strong branching :       0.00          0          0          -          0        0.0          0        0.0          -          -          0
  pseudo solution  :       0.00          0          0          -          0        0.0          0        0.0          -          -          -
  applied globally :       0.00          -          -          0          0        0.0          -          -          0          -          -
  applied locally  :          -          -          -          0          0        0.0          -          -          0          -          -
Separators         :   ExecTime  SetupTime      Calls    Cutoffs    DomReds       Cuts    Applied      Conss
  cut pool         :       0.00                    11          -          -         52          -          -    (maximal pool size: 88)
  aggregation      :       0.00       0.00          5          0          0         36          1          0
  > cmir           :          -          -          -          -          -          -          1          -
  > flowcover      :          -          -          -          -          -          -          0          -
  > knapsackcover  :          -          -          -          -          -          -          0          -
  cgmip            :       0.00       0.00          0          0          0          0          0          0
  clique           :       0.00       0.00          5          0          0          0          0          0
  closecuts        :       0.00       0.00          0          0          0          0          0          0
  convexproj       :       0.00       0.00          0          0          0          0          0          0
  disjunctive      :       0.00       0.00          0          0          0          0          0          0
  eccuts           :       0.00       0.00          0          0          0          0          0          0
  gauge            :       0.00       0.00          0          0          0          0          0          0
  gomory           :       0.00       0.00          5          0          0         29          1          0
  > gomorymi       :          -          -          -          -          -          -          1          -
  > strongcg       :          -          -          -          -          -          -          0          -
  impliedbounds    :       0.00       0.00          5          0          0         10          2          0
  interminor       :       0.00       0.00          0          0          0          0          0          0
  intobj           :       0.00       0.00          0          0          0          0          0          0
  mcf              :       0.00       0.00          1          0          0          0          0          0
  minor            :       0.00       0.00          0          0          0          0          0          0
  mixing           :       0.00       0.00          5          0          0          9          4          0
  oddcycle         :       0.00       0.00          0          0          0          0          0          0
  rapidlearning    :       0.00       0.00          0          0          0          0          0          0
  rlt              :       0.00       0.00          5          0          0          0          0          0
  zerohalf         :       0.00       0.00          5          0          0          4          4          0
Cutselectors       :   ExecTime  SetupTime
  hybrid           :       0.00       0.00
Pricers            :   ExecTime  SetupTime      Calls       Vars
  problem variables:       0.00          -          0          0
Branching Rules    :   ExecTime  SetupTime   BranchLP  BranchExt   BranchPS    Cutoffs    DomReds       Cuts      Conss   Children
  allfullstrong    :       0.00       0.00          0          0          0          0          0          0          0          0
  cloud            :       0.00       0.00          0          0          0          0          0          0          0          0
  distribution     :       0.00       0.00          0          0          0          0          0          0          0          0
  fullstrong       :       0.00       0.00          0          0          0          0          0          0          0          0
  inference        :       0.00       0.00          0          0          0          0          0          0          0          0
  leastinf         :       0.00       0.00          0          0          0          0          0          0          0          0
  lookahead        :       0.00       0.00          0          0          0          0          0          0          0          0
  mostinf          :       0.00       0.00          0          0          0          0          0          0          0          0
  multaggr         :       0.00       0.00          0          0          0          0          0          0          0          0
  nodereopt        :       0.00       0.00          0          0          0          0          0          0          0          0
  pscost           :       0.00       0.00          0          0          0          0          0          0          0          0
  random           :       0.00       0.00          0          0          0          0          0          0          0          0
  relpscost        :       0.00       0.00          0          0          0          0          0          0          0          0
  vanillafullstrong:       0.00       0.00          0          0          0          0          0          0          0          0
Primal Heuristics  :   ExecTime  SetupTime      Calls      Found       Best
  LP solutions     :       0.00          -          -          0          0
  relax solutions  :       0.00          -          -          0          0
  pseudo solutions :       0.00          -          -          0          0
  strong branching :       0.00          -          -          0          0
  actconsdiving    :       0.00       0.00          0          0          0
  adaptivediving   :       0.00       0.00          0          0          0
  alns             :       0.00       0.00          0          0          0
  bound            :       0.00       0.00          0          0          0
  clique           :       0.00       0.00          1          0          0
  coefdiving       :       0.00       0.00          0          0          0
  completesol      :       0.00       0.00          0          0          0
  conflictdiving   :       0.00       0.00          0          0          0
  crossover        :       0.00       0.00          0          0          0
  dins             :       0.00       0.00          0          0          0
  distributiondivin:       0.00       0.00          0          0          0
  dps              :       0.00       0.00          0          0          0
  dualval          :       0.00       0.00          0          0          0
  farkasdiving     :       0.00       0.00          0          0          0
  feaspump         :       0.00       0.00          0          0          0
  fixandinfer      :       0.00       0.00          0          0          0
  fracdiving       :       0.00       0.00          0          0          0
  gins             :       0.00       0.00          0          0          0
  guideddiving     :       0.00       0.00          0          0          0
  indicator        :       0.00       0.00          0          0          0
  intdiving        :       0.00       0.00          0          0          0
  intshifting      :       0.00       0.00          1          1          1
  linesearchdiving :       0.00       0.00          0          0          0
  localbranching   :       0.00       0.00          0          0          0
  locks            :       0.01       0.00          1          1          1
  lpface           :       0.00       0.00          0          0          0
  mpec             :       0.00       0.00          0          0          0
  multistart       :       0.00       0.00          0          0          0
  mutation         :       0.00       0.00          0          0          0
  nlpdiving        :       0.00       0.00          0          0          0
  objpscostdiving  :       0.00       0.00          0          0          0
  octane           :       0.00       0.00          0          0          0
  ofins            :       0.00       0.00          0          0          0
  oneopt           :       0.00       0.00          1          0          0
  padm             :       0.00       0.00          0          0          0
  proximity        :       0.00       0.00          0          0          0
  pscostdiving     :       0.00       0.00          0          0          0
  randrounding     :       0.00       0.00          5          0          0
  rens             :       0.00       0.00          0          0          0
  reoptsols        :       0.00       0.00          0          0          0
  repair           :       0.00       0.00          0          0          0
  rins             :       0.00       0.00          0          0          0
  rootsoldiving    :       0.00       0.00          0          0          0
  rounding         :       0.00       0.00          5          0          0
  shiftandpropagate:       0.00       0.00          0          0          0
  shifting         :       0.00       0.00          5          0          0
  simplerounding   :       0.00       0.00          0          0          0
  subnlp           :       0.00       0.00          0          0          0
  trivial          :       0.00       0.00          2          0          0
  trivialnegation  :       0.00       0.00          0          0          0
  trustregion      :       0.00       0.00          0          0          0
  trysol           :       0.00       0.00          0          0          0
  twoopt           :       0.00       0.00          0          0          0
  undercover       :       0.00       0.00          0          0          0
  vbounds          :       0.00       0.00          0          0          0
  veclendiving     :       0.00       0.00          0          0          0
  zeroobj          :       0.00       0.00          0          0          0
  zirounding       :       0.00       0.00          1          0          0
  other solutions  :          -          -          -          0          -
Diving (single)    :      Calls      Nodes   LP Iters Backtracks  Conflicts   MinDepth   MaxDepth   AvgDepth  RoundSols  NLeafSols  MinSolDpt  MaxSolDpt  AvgSolDpt
  actconsdiving    :          0          -          -          -          -          -          -          -          -          -          -          -          -
  coefdiving       :          0          -          -          -          -          -          -          -          -          -          -          -          -
  conflictdiving   :          0          -          -          -          -          -          -          -          -          -          -          -          -
  distributiondivin:          0          -          -          -          -          -          -          -          -          -          -          -          -
  farkasdiving     :          0          -          -          -          -          -          -          -          -          -          -          -          -
  fracdiving       :          0          -          -          -          -          -          -          -          -          -          -          -          -
  guideddiving     :          0          -          -          -          -          -          -          -          -          -          -          -          -
  linesearchdiving :          0          -          -          -          -          -          -          -          -          -          -          -          -
  pscostdiving     :          0          -          -          -          -          -          -          -          -          -          -          -          -
  veclendiving     :          0          -          -          -          -          -          -          -          -          -          -          -          -
Diving (adaptive)  :      Calls      Nodes   LP Iters Backtracks  Conflicts   MinDepth   MaxDepth   AvgDepth  RoundSols  NLeafSols  MinSolDpt  MaxSolDpt  AvgSolDpt
  actconsdiving    :          0          -          -          -          -          -          -          -          -          -          -          -          -
  coefdiving       :          0          -          -          -          -          -          -          -          -          -          -          -          -
  conflictdiving   :          0          -          -          -          -          -          -          -          -          -          -          -          -
  distributiondivin:          0          -          -          -          -          -          -          -          -          -          -          -          -
  farkasdiving     :          0          -          -          -          -          -          -          -          -          -          -          -          -
  fracdiving       :          0          -          -          -          -          -          -          -          -          -          -          -          -
  guideddiving     :          0          -          -          -          -          -          -          -          -          -          -          -          -
  linesearchdiving :          0          -          -          -          -          -          -          -          -          -          -          -          -
  pscostdiving     :          0          -          -          -          -          -          -          -          -          -          -          -          -
  veclendiving     :          0          -          -          -          -          -          -          -          -          -          -          -          -
Neighborhoods      :      Calls  SetupTime  SolveTime SolveNodes       Sols       Best       Exp3  EpsGreedy        UCB TgtFixRate  Opt  Inf Node Stal  Sol  Usr Othr Actv
  rens             :          0       0.00       0.00          0          0          0    0.00000   -1.00000    1.00000      0.900    0    0    0    0    0    0    0    1
  rins             :          0       0.00       0.00          0          0          0    0.00000   -1.00000    1.00000      0.900    0    0    0    0    0    0    0    1
  mutation         :          0       0.00       0.00          0          0          0    0.00000   -1.00000    1.00000      0.900    0    0    0    0    0    0    0    1
  localbranching   :          0       0.00       0.00          0          0          0    0.00000   -1.00000    1.00000      0.900    0    0    0    0    0    0    0    1
  crossover        :          0       0.00       0.00          0          0          0    0.00000   -1.00000    1.00000      0.900    0    0    0    0    0    0    0    1
  proximity        :          0       0.00       0.00          0          0          0    0.00000   -1.00000    1.00000      0.900    0    0    0    0    0    0    0    1
  zeroobjective    :          0       0.00       0.00          0          0          0    0.00000   -1.00000    1.00000      0.900    0    0    0    0    0    0    0    1
  dins             :          0       0.00       0.00          0          0          0    0.00000   -1.00000    1.00000      0.900    0    0    0    0    0    0    0    1
  trustregion      :          0       0.00       0.00          0          0          0    0.00000   -1.00000    1.00000      0.900    0    0    0    0    0    0    0    0
LP                 :       Time      Calls Iterations  Iter/call   Iter/sec  Time-0-It Calls-0-It    ItLimit
  primal LP        :       0.00          0          0       0.00          -       0.00          0
  dual LP          :       0.00          7        191      38.20          -       0.00          2
  lex dual LP      :       0.00          0          0       0.00          -
  barrier LP       :       0.00          0          0       0.00          -       0.00          0
  resolve instable :       0.00          0          0       0.00          -
  diving/probing LP:       0.00          2         30      15.00          -
  strong branching :       0.00          0          0       0.00          -          -          -          0
    (at root node) :          -          0          0       0.00          -
  conflict analysis:       0.00          0          0       0.00          -
B&B Tree           :
  number of runs   :          1
  nodes            :          1 (0 internal, 1 leaves)
  feasible leaves  :          0
  infeas. leaves   :          0
  objective leaves :          1
  nodes (total)    :          1 (0 internal, 1 leaves)
  nodes left       :          0
  max depth        :          0
  max depth (total):          0
  backtracks       :          0 (0.0%)
  early backtracks :          0 (0.0%)
  nodes exc. ref.  :          0 (0.0%)
  delayed cutoffs  :          0
  repropagations   :          0 (0 domain reductions, 0 cutoffs)
  avg switch length:       2.00
  switching time   :       0.00
Estim. Tree Size   :          1
Estimation Tree    : 1 nodes (1 visited, 0 internal, 1 leaves, 0 open), weight: 1.0000 completed 1.0000
Estimations        :      estim      value      trend resolution     smooth
  wbe              :          1          -          -          -          -
  tree-profile     :         -1          -          -          -          -
  gap              :          1    1.00000    1.00000          1          1
  tree-weight      :          1    1.00000    1.00000          1          1
  leaf-frequency   :          1    0.50000    1.00000          1          1
  ssg              :          1    0.00000   -1.00000          1          1
  open-nodes       :          1    0.00000    0.00000          1          1
Root Node          :
  First LP value   : -2.23411371237458e+00
  First LP Iters   :        185 (66738.82 Iter/sec)
  First LP Time    :       0.00
  Final Dual Bound : -2.23411371237458e+00
  Final Root Iters :        191
  Root LP Estimate :                     -
Solution           :
  Solutions found  :          2 (2 improvements)
  First Solution   : -1.00000000000000e+00   (in run 1, after 1 nodes, 0.30 seconds, depth 6, found by <locks>)
  Gap First Sol.   :    6650.34 %
  Gap Last Sol.    :       0.00 %
  Primal Bound     : -2.23411371237458e+00   (in run 1, after 1 nodes, 0.32 seconds, depth 0, found by <intshifting>)
  Dual Bound       : -2.23411371237458e+00
  Gap              :       0.00 %
Integrals          :      Total       Avg%
  primal-dual      :      31.65      97.85
  primal-ref       :          -          - (not evaluated)
  dual-ref         :          -          - (not evaluated)
